(set-info :smt-lib-version 2.6)
(set-logic QF_LRA)
(set-info :source |
SAL benchmark suite.  Created at SRI by Bruno Dutertre, John Rushby, Maria
Sorea, and Leonardo de Moura.  Contact demoura@csl.sri.com for more
information.

This benchmark was automatically translated into SMT-LIB format from
CVC format using CVC Lite
|)
(set-info :category "industrial")
(set-info :status unsat)
(declare-fun x_0 () Bool)
(declare-fun x_1 () Bool)
(declare-fun x_2 () Bool)
(declare-fun x_3 () Bool)
(declare-fun x_4 () Bool)
(declare-fun x_5 () Bool)
(declare-fun x_6 () Real)
(declare-fun x_7 () Real)
(declare-fun x_8 () Real)
(declare-fun x_9 () Real)
(declare-fun x_10 () Real)
(declare-fun x_11 () Real)
(declare-fun x_12 () Real)
(declare-fun x_13 () Real)
(declare-fun x_14 () Real)
(declare-fun x_15 () Real)
(declare-fun x_16 () Real)
(declare-fun x_17 () Real)
(declare-fun x_18 () Real)
(declare-fun x_19 () Bool)
(declare-fun x_20 () Bool)
(declare-fun x_21 () Real)
(declare-fun x_22 () Bool)
(declare-fun x_23 () Bool)
(declare-fun x_24 () Bool)
(declare-fun x_25 () Bool)
(declare-fun x_26 () Bool)
(declare-fun x_27 () Bool)
(declare-fun x_28 () Bool)
(declare-fun x_29 () Real)
(declare-fun x_30 () Bool)
(declare-fun x_31 () Bool)
(declare-fun x_32 () Real)
(declare-fun x_33 () Real)
(declare-fun x_34 () Real)
(declare-fun x_35 () Bool)
(declare-fun x_36 () Bool)
(declare-fun x_37 () Real)
(declare-fun x_38 () Bool)
(declare-fun x_39 () Bool)
(declare-fun x_40 () Real)
(declare-fun x_41 () Real)
(declare-fun x_42 () Bool)
(declare-fun x_43 () Bool)
(declare-fun x_44 () Real)
(declare-fun x_45 () Bool)
(declare-fun x_46 () Bool)
(declare-fun x_47 () Bool)
(declare-fun x_48 () Bool)
(declare-fun x_49 () Bool)
(declare-fun x_50 () Bool)
(declare-fun x_51 () Real)
(declare-fun x_52 () Bool)
(declare-fun x_53 () Bool)
(declare-fun x_54 () Real)
(declare-fun x_55 () Real)
(declare-fun x_56 () Real)
(declare-fun x_57 () Real)
(declare-fun x_58 () Real)
(declare-fun x_59 () Real)
(declare-fun x_60 () Bool)
(declare-fun x_61 () Bool)
(declare-fun x_62 () Real)
(declare-fun x_63 () Bool)
(declare-fun x_64 () Bool)
(declare-fun x_65 () Bool)
(declare-fun x_66 () Bool)
(declare-fun x_67 () Bool)
(declare-fun x_68 () Bool)
(declare-fun x_69 () Real)
(declare-fun x_70 () Bool)
(declare-fun x_71 () Bool)
(declare-fun x_72 () Real)
(declare-fun x_73 () Real)
(declare-fun x_74 () Real)
(declare-fun x_75 () Real)
(declare-fun x_76 () Real)
(declare-fun x_77 () Real)
(declare-fun x_78 () Bool)
(declare-fun x_79 () Bool)
(declare-fun x_80 () Real)
(declare-fun x_81 () Bool)
(declare-fun x_82 () Bool)
(declare-fun x_83 () Bool)
(declare-fun x_84 () Bool)
(declare-fun x_85 () Bool)
(declare-fun x_86 () Bool)
(declare-fun x_87 () Real)
(declare-fun x_88 () Bool)
(declare-fun x_89 () Bool)
(declare-fun x_90 () Real)
(declare-fun x_91 () Real)
(declare-fun x_92 () Real)
(declare-fun x_93 () Real)
(declare-fun x_94 () Real)
(declare-fun x_95 () Real)
(declare-fun x_96 () Bool)
(declare-fun x_97 () Bool)
(declare-fun x_98 () Real)
(declare-fun x_99 () Bool)
(declare-fun x_100 () Bool)
(declare-fun x_101 () Bool)
(declare-fun x_102 () Bool)
(declare-fun x_103 () Bool)
(declare-fun x_104 () Bool)
(declare-fun x_105 () Real)
(declare-fun x_106 () Bool)
(declare-fun x_107 () Bool)
(declare-fun x_108 () Real)
(declare-fun x_109 () Real)
(declare-fun x_110 () Real)
(declare-fun x_111 () Real)
(declare-fun x_112 () Real)
(declare-fun x_113 () Real)
(declare-fun x_114 () Bool)
(declare-fun x_115 () Bool)
(declare-fun x_116 () Real)
(declare-fun x_117 () Bool)
(declare-fun x_118 () Bool)
(declare-fun x_119 () Bool)
(declare-fun x_120 () Bool)
(declare-fun x_121 () Bool)
(declare-fun x_122 () Bool)
(declare-fun x_123 () Real)
(declare-fun x_124 () Bool)
(declare-fun x_125 () Bool)
(declare-fun x_126 () Real)
(declare-fun x_127 () Real)
(declare-fun x_128 () Real)
(declare-fun x_129 () Real)
(declare-fun x_130 () Real)
(declare-fun x_131 () Real)
(declare-fun x_132 () Bool)
(declare-fun x_133 () Bool)
(declare-fun x_134 () Real)
(declare-fun x_135 () Bool)
(declare-fun x_136 () Bool)
(declare-fun x_137 () Bool)
(declare-fun x_138 () Bool)
(declare-fun x_139 () Bool)
(declare-fun x_140 () Bool)
(declare-fun x_141 () Real)
(declare-fun x_142 () Bool)
(declare-fun x_143 () Bool)
(declare-fun x_144 () Real)
(declare-fun x_145 () Real)
(declare-fun x_146 () Real)
(declare-fun x_147 () Real)
(declare-fun x_148 () Real)
(declare-fun x_149 () Real)
(declare-fun x_150 () Bool)
(declare-fun x_151 () Bool)
(declare-fun x_152 () Real)
(declare-fun x_153 () Bool)
(declare-fun x_154 () Bool)
(declare-fun x_155 () Bool)
(declare-fun x_156 () Bool)
(declare-fun x_157 () Bool)
(declare-fun x_158 () Bool)
(declare-fun x_159 () Real)
(declare-fun x_160 () Bool)
(declare-fun x_161 () Bool)
(declare-fun x_162 () Real)
(declare-fun x_163 () Real)
(declare-fun x_164 () Real)
(declare-fun x_165 () Real)
(declare-fun x_166 () Real)
(declare-fun x_167 () Real)
(declare-fun x_168 () Bool)
(declare-fun x_169 () Bool)
(declare-fun x_170 () Real)
(declare-fun x_171 () Bool)
(declare-fun x_172 () Bool)
(declare-fun x_173 () Bool)
(declare-fun x_174 () Bool)
(declare-fun x_175 () Bool)
(declare-fun x_176 () Bool)
(declare-fun x_177 () Real)
(declare-fun x_178 () Bool)
(declare-fun x_179 () Bool)
(declare-fun x_180 () Real)
(declare-fun x_181 () Real)
(declare-fun x_182 () Real)
(declare-fun x_183 () Real)
(declare-fun x_184 () Real)
(declare-fun x_185 () Real)
(declare-fun x_186 () Bool)
(declare-fun x_187 () Bool)
(declare-fun x_188 () Real)
(declare-fun x_189 () Bool)
(declare-fun x_190 () Bool)
(declare-fun x_191 () Bool)
(declare-fun x_192 () Bool)
(declare-fun x_193 () Bool)
(declare-fun x_194 () Bool)
(declare-fun x_195 () Real)
(declare-fun x_196 () Bool)
(declare-fun x_197 () Bool)
(declare-fun x_198 () Real)
(declare-fun x_199 () Real)
(declare-fun x_200 () Real)
(declare-fun x_201 () Real)
(declare-fun x_202 () Real)
(assert (let ((?v_32 (+ x_170 x_15)) (?v_23 (+ x_180 x_15)) (?v_26 (= x_185 x_167)) (?v_2 (not x_186))) (let ((?v_4 (and ?v_2 x_187)) (?v_31 (= x_188 x_170)) (?v_24 (and (= x_189 x_171) (= x_190 x_172))) (?v_9 (= x_181 1)) (?v_33 (and (= x_191 x_173) (= x_192 x_174))) (?v_12 (and (= x_193 x_175) (= x_194 x_176))) (?v_5 (= x_195 x_177)) (?v_14 (not x_196))) (let ((?v_16 (and ?v_14 x_197)) (?v_17 (= x_198 0)) (?v_21 (= x_198 x_180)) (?v_0 (= x_181 0)) (?v_11 (+ x_177 x_15)) (?v_28 (= x_188 0)) (?v_60 (+ x_152 x_14)) (?v_53 (+ x_162 x_14)) (?v_56 (= x_167 x_149)) (?v_36 (not x_168))) (let ((?v_38 (and ?v_36 x_169)) (?v_59 (= x_170 x_152)) (?v_54 (and (= x_171 x_153) (= x_172 x_154))) (?v_41 (= x_163 1)) (?v_61 (and (= x_173 x_155) (= x_174 x_156))) (?v_44 (and (= x_175 x_157) (= x_176 x_158))) (?v_39 (= x_177 x_159)) (?v_46 (not x_178))) (let ((?v_48 (and ?v_46 x_179)) (?v_49 (= x_180 0)) (?v_51 (= x_180 x_162)) (?v_34 (= x_163 0)) (?v_43 (+ x_159 x_14)) (?v_58 (= x_170 0)) (?v_88 (+ x_134 x_13)) (?v_81 (+ x_144 x_13)) (?v_84 (= x_149 x_131)) (?v_64 (not x_150))) (let ((?v_66 (and ?v_64 x_151)) (?v_87 (= x_152 x_134)) (?v_82 (and (= x_153 x_135) (= x_154 x_136))) (?v_69 (= x_145 1)) (?v_89 (and (= x_155 x_137) (= x_156 x_138))) (?v_72 (and (= x_157 x_139) (= x_158 x_140))) (?v_67 (= x_159 x_141)) (?v_74 (not x_160))) (let ((?v_76 (and ?v_74 x_161)) (?v_77 (= x_162 0)) (?v_79 (= x_162 x_144)) (?v_62 (= x_145 0)) (?v_71 (+ x_141 x_13)) (?v_86 (= x_152 0)) (?v_116 (+ x_116 x_12)) (?v_109 (+ x_126 x_12)) (?v_112 (= x_131 x_113)) (?v_92 (not x_132))) (let ((?v_94 (and ?v_92 x_133)) (?v_115 (= x_134 x_116)) (?v_110 (and (= x_135 x_117) (= x_136 x_118))) (?v_97 (= x_127 1)) (?v_117 (and (= x_137 x_119) (= x_138 x_120))) (?v_100 (and (= x_139 x_121) (= x_140 x_122))) (?v_95 (= x_141 x_123)) (?v_102 (not x_142))) (let ((?v_104 (and ?v_102 x_143)) (?v_105 (= x_144 0)) (?v_107 (= x_144 x_126)) (?v_90 (= x_127 0)) (?v_99 (+ x_123 x_12)) (?v_114 (= x_134 0)) (?v_144 (+ x_98 x_11)) (?v_137 (+ x_108 x_11)) (?v_140 (= x_113 x_95)) (?v_120 (not x_114))) (let ((?v_122 (and ?v_120 x_115)) (?v_143 (= x_116 x_98)) (?v_138 (and (= x_117 x_99) (= x_118 x_100))) (?v_125 (= x_109 1)) (?v_145 (and (= x_119 x_101) (= x_120 x_102))) (?v_128 (and (= x_121 x_103) (= x_122 x_104))) (?v_123 (= x_123 x_105)) (?v_130 (not x_124))) (let ((?v_132 (and ?v_130 x_125)) (?v_133 (= x_126 0)) (?v_135 (= x_126 x_108)) (?v_118 (= x_109 0)) (?v_127 (+ x_105 x_11)) (?v_142 (= x_116 0)) (?v_172 (+ x_80 x_10)) (?v_165 (+ x_90 x_10)) (?v_168 (= x_95 x_77)) (?v_148 (not x_96))) (let ((?v_150 (and ?v_148 x_97)) (?v_171 (= x_98 x_80)) (?v_166 (and (= x_99 x_81) (= x_100 x_82))) (?v_153 (= x_91 1)) (?v_173 (and (= x_101 x_83) (= x_102 x_84))) (?v_156 (and (= x_103 x_85) (= x_104 x_86))) (?v_151 (= x_105 x_87)) (?v_158 (not x_106))) (let ((?v_160 (and ?v_158 x_107)) (?v_161 (= x_108 0)) (?v_163 (= x_108 x_90)) (?v_146 (= x_91 0)) (?v_155 (+ x_87 x_10)) (?v_170 (= x_98 0)) (?v_200 (+ x_62 x_9)) (?v_193 (+ x_72 x_9)) (?v_196 (= x_77 x_59)) (?v_176 (not x_78))) (let ((?v_178 (and ?v_176 x_79)) (?v_199 (= x_80 x_62)) (?v_194 (and (= x_81 x_63) (= x_82 x_64))) (?v_181 (= x_73 1)) (?v_201 (and (= x_83 x_65) (= x_84 x_66))) (?v_184 (and (= x_85 x_67) (= x_86 x_68))) (?v_179 (= x_87 x_69)) (?v_186 (not x_88))) (let ((?v_188 (and ?v_186 x_89)) (?v_189 (= x_90 0)) (?v_191 (= x_90 x_72)) (?v_174 (= x_73 0)) (?v_183 (+ x_69 x_9)) (?v_198 (= x_80 0)) (?v_228 (+ x_44 x_8)) (?v_221 (+ x_54 x_8)) (?v_224 (= x_59 x_41)) (?v_204 (not x_60))) (let ((?v_206 (and ?v_204 x_61)) (?v_227 (= x_62 x_44)) (?v_222 (and (= x_63 x_45) (= x_64 x_46))) (?v_209 (= x_55 1)) (?v_229 (and (= x_65 x_47) (= x_66 x_48))) (?v_212 (and (= x_67 x_49) (= x_68 x_50))) (?v_207 (= x_69 x_51)) (?v_214 (not x_70))) (let ((?v_216 (and ?v_214 x_71)) (?v_217 (= x_72 0)) (?v_219 (= x_72 x_54)) (?v_202 (= x_55 0)) (?v_211 (+ x_51 x_8)) (?v_226 (= x_62 0)) (?v_256 (+ x_21 x_7)) (?v_249 (+ x_32 x_7)) (?v_252 (= x_41 x_17)) (?v_232 (not x_42))) (let ((?v_234 (and ?v_232 x_43)) (?v_255 (= x_44 x_21)) (?v_250 (and (= x_45 x_22) (= x_46 x_23))) (?v_237 (= x_33 1)) (?v_257 (and (= x_47 x_25) (= x_48 x_26))) (?v_240 (and (= x_49 x_27) (= x_50 x_28))) (?v_235 (= x_51 x_29)) (?v_242 (not x_52))) (let ((?v_244 (and ?v_242 x_53)) (?v_245 (= x_54 0)) (?v_247 (= x_54 x_32)) (?v_230 (= x_33 0)) (?v_239 (+ x_29 x_7)) (?v_254 (= x_44 0)) (?v_266 (+ 0 x_6)) (?v_278 (= x_17 x_18)) (?v_261 (not x_19))) (let ((?v_263 (and ?v_261 x_20)) (?v_279 (= x_21 0)) (?v_275 (and (= x_22 x_2) (= x_23 x_3))) (?v_280 (and (= x_25 x_4) (= x_26 x_5))) (?v_267 (and (= x_27 x_0) (= x_28 x_1))) (?v_262 (= x_29 0)) (?v_270 (not x_30))) (let ((?v_272 (and ?v_270 x_31)) (?v_271 (= x_32 0)) (?v_260 (not x_24)) (?v_258 (not x_0)) (?v_259 (not x_1)) (?v_268 (not x_2)) (?v_269 (not x_3)) (?v_276 (not x_4)) (?v_277 (not x_5)) (?v_3 (not x_175)) (?v_1 (not x_176)) (?v_6 (not x_187)) (?v_8 (not x_194)) (?v_7 (not x_193)) (?v_15 (not x_171)) (?v_13 (not x_172)) (?v_20 (not x_190)) (?v_18 (not x_197)) (?v_19 (not x_189)) (?v_27 (not x_173)) (?v_25 (not x_174)) (?v_30 (not x_192)) (?v_29 (not x_191)) (?v_37 (not x_157)) (?v_35 (not x_158)) (?v_40 (not x_169)) (?v_47 (not x_153)) (?v_45 (not x_154)) (?v_50 (not x_179)) (?v_57 (not x_155)) (?v_55 (not x_156)) (?v_65 (not x_139)) (?v_63 (not x_140)) (?v_68 (not x_151)) (?v_75 (not x_135)) (?v_73 (not x_136)) (?v_78 (not x_161)) (?v_85 (not x_137)) (?v_83 (not x_138)) (?v_93 (not x_121)) (?v_91 (not x_122)) (?v_96 (not x_133)) (?v_103 (not x_117)) (?v_101 (not x_118)) (?v_106 (not x_143)) (?v_113 (not x_119)) (?v_111 (not x_120)) (?v_121 (not x_103)) (?v_119 (not x_104)) (?v_124 (not x_115)) (?v_131 (not x_99)) (?v_129 (not x_100)) (?v_134 (not x_125)) (?v_141 (not x_101)) (?v_139 (not x_102)) (?v_149 (not x_85)) (?v_147 (not x_86)) (?v_152 (not x_97)) (?v_159 (not x_81)) (?v_157 (not x_82)) (?v_162 (not x_107)) (?v_169 (not x_83)) (?v_167 (not x_84)) (?v_177 (not x_67)) (?v_175 (not x_68)) (?v_180 (not x_79)) (?v_187 (not x_63)) (?v_185 (not x_64)) (?v_190 (not x_89)) (?v_197 (not x_65)) (?v_195 (not x_66)) (?v_205 (not x_49)) (?v_203 (not x_50)) (?v_208 (not x_61)) (?v_215 (not x_45)) (?v_213 (not x_46)) (?v_218 (not x_71)) (?v_225 (not x_47)) (?v_223 (not x_48)) (?v_233 (not x_27)) (?v_231 (not x_28)) (?v_236 (not x_43)) (?v_243 (not x_22)) (?v_241 (not x_23)) (?v_246 (not x_53)) (?v_253 (not x_25)) (?v_251 (not x_26)) (?v_264 (not x_20)) (?v_273 (not x_31)) (?v_10 (<= ?v_11 5)) (?v_22 (<= ?v_23 1)) (?v_42 (<= ?v_43 5)) (?v_52 (<= ?v_53 1)) (?v_70 (<= ?v_71 5)) (?v_80 (<= ?v_81 1)) (?v_98 (<= ?v_99 5)) (?v_108 (<= ?v_109 1)) (?v_126 (<= ?v_127 5)) (?v_136 (<= ?v_137 1)) (?v_154 (<= ?v_155 5)) (?v_164 (<= ?v_165 1)) (?v_182 (<= ?v_183 5)) (?v_192 (<= ?v_193 1)) (?v_210 (<= ?v_211 5)) (?v_220 (<= ?v_221 1)) (?v_238 (<= ?v_239 5)) (?v_248 (<= ?v_249 1)) (?v_265 (<= ?v_266 5)) (?v_274 (<= ?v_266 1))) (and (and (and (and (and (and (and (and (and (and (and (and (and (and (and (and (and (and (and (and (and (and (and (and (and (and (and (and (and (and (and (and (and (and (and (and (and (and (and (and (and (and (and (and (and (and (and (and (and (and (and (and (and (and (and (and (and (and (and (and (and (and (and (and (and (and (and (and (and (and (and (and (and (and (and (and (and (and (and (and (and (and (and (and (and (and (and (and (and (and (and (and (and (and (and (and (<= x_199 1) (>= x_199 0)) (<= x_181 1)) (>= x_181 0)) (<= x_163 1)) (>= x_163 0)) (<= x_145 1)) (>= x_145 0)) (<= x_127 1)) (>= x_127 0)) (<= x_109 1)) (>= x_109 0)) (<= x_91 1)) (>= x_91 0)) (<= x_73 1)) (>= x_73 0)) (<= x_55 1)) (>= x_55 0)) (<= x_33 1)) (>= x_33 0)) (and ?v_258 ?v_259)) (and ?v_268 ?v_269)) (and ?v_276 ?v_277)) (not (< x_16 0))) (not (< x_15 0))) (not (< x_14 0))) (not (< x_13 0))) (not (< x_12 0))) (not (< x_11 0))) (not (< x_10 0))) (not (< x_9 0))) (not (< x_8 0))) (not (< x_7 0))) (not (< x_6 0))) (= x_199 (ite ?v_9 0 1))) (or (or (or (or (or (and (and (and (and (and (and (and (and (= x_200 0) ?v_0) ?v_3) ?v_1) ?v_2) ?v_6) x_193) ?v_8) (= x_195 0)) (and (and (and (and (and (and (and (and (= x_200 1) ?v_0) x_175) ?v_1) (not (<= x_177 2))) ?v_4) ?v_7) x_194) ?v_5)) (and (and (and (and (and (and (and (= x_200 2) ?v_0) ?v_3) x_176) ?v_4) x_193) x_194) ?v_5)) (and (and (and (and (and (and (and (and (= x_200 3) ?v_0) x_175) x_176) x_186) ?v_6) ?v_7) ?v_8) ?v_5)) (and (and (and (and (and (and (and (and (= x_200 4) ?v_9) (or (or ?v_3 x_176) ?v_10)) (or (or x_175 ?v_1) ?v_10)) (or (or ?v_3 ?v_1) ?v_10)) (= x_195 ?v_11)) (= x_186 x_168)) (= x_187 x_169)) ?v_12)) (and (and (and (and (= x_200 5) ?v_0) ?v_5) ?v_4) ?v_12))) (or (or (or (or (or (and (and (and (and (and (and (and (and (and (= x_201 0) ?v_0) ?v_15) ?v_13) ?v_2) ?v_6) ?v_16) x_189) ?v_20) ?v_17) (and (and (and (and (and (and (and (and (and (= x_201 1) ?v_0) x_171) ?v_13) (= x_180 1)) ?v_14) ?v_18) ?v_19) x_190) ?v_21)) (and (and (and (and (and (and (and (and (and (= x_201 2) ?v_0) ?v_15) x_172) x_186) ?v_6) ?v_16) x_189) x_190) ?v_17)) (and (and (and (and (and (and (and (and (= x_201 3) ?v_0) x_171) x_172) x_196) ?v_18) ?v_19) ?v_20) ?v_21)) (and (and (and (and (and (and (and (= x_201 4) ?v_9) (or (or ?v_15 x_172) ?v_22)) (or (or ?v_15 ?v_13) ?v_22)) (= x_198 ?v_23)) (= x_196 x_178)) (= x_197 x_179)) ?v_24)) (and (and (and (and (and (and (= x_201 5) ?v_0) ?v_2) x_187) ?v_21) ?v_16) ?v_24))) (or (or (or (or (or (and (and (and (and (and (and (and (and (and (= x_202 0) ?v_0) ?v_27) ?v_25) ?v_14) ?v_18) x_191) ?v_30) ?v_28) ?v_26) (and (and (and (and (and (and (and (= x_202 1) ?v_0) x_173) ?v_25) ?v_29) x_192) ?v_26) ?v_31)) (and (and (and (and (and (and (and (and (and (= x_202 2) ?v_0) ?v_27) x_174) x_196) ?v_18) x_191) x_192) ?v_28) ?v_26)) (and (and (and (and (and (and (and (and (= x_202 3) ?v_0) x_173) x_174) (not (< x_170 1))) ?v_29) ?v_30) ?v_26) ?v_31)) (and (and (and (and (and (and (= x_202 4) ?v_9) (or (or ?v_27 x_174) (<= ?v_32 1))) (or (or ?v_27 ?v_25) (<= ?v_32 2))) (= x_188 ?v_32)) ?v_33) ?v_26)) (and (and (and (and (and (and (= x_202 5) ?v_0) ?v_14) x_197) ?v_31) ?v_33) ?v_26))) (= x_181 (ite ?v_41 0 1))) (or (or (or (or (or (and (and (and (and (and (and (and (and (= x_182 0) ?v_34) ?v_37) ?v_35) ?v_36) ?v_40) x_175) ?v_1) (= x_177 0)) (and (and (and (and (and (and (and (and (= x_182 1) ?v_34) x_157) ?v_35) (not (<= x_159 2))) ?v_38) ?v_3) x_176) ?v_39)) (and (and (and (and (and (and (and (= x_182 2) ?v_34) ?v_37) x_158) ?v_38) x_175) x_176) ?v_39)) (and (and (and (and (and (and (and (and (= x_182 3) ?v_34) x_157) x_158) x_168) ?v_40) ?v_3) ?v_1) ?v_39)) (and (and (and (and (and (and (and (and (= x_182 4) ?v_41) (or (or ?v_37 x_158) ?v_42)) (or (or x_157 ?v_35) ?v_42)) (or (or ?v_37 ?v_35) ?v_42)) (= x_177 ?v_43)) (= x_168 x_150)) (= x_169 x_151)) ?v_44)) (and (and (and (and (= x_182 5) ?v_34) ?v_39) ?v_38) ?v_44))) (or (or (or (or (or (and (and (and (and (and (and (and (and (and (= x_183 0) ?v_34) ?v_47) ?v_45) ?v_36) ?v_40) ?v_48) x_171) ?v_13) ?v_49) (and (and (and (and (and (and (and (and (and (= x_183 1) ?v_34) x_153) ?v_45) (= x_162 1)) ?v_46) ?v_50) ?v_15) x_172) ?v_51)) (and (and (and (and (and (and (and (and (and (= x_183 2) ?v_34) ?v_47) x_154) x_168) ?v_40) ?v_48) x_171) x_172) ?v_49)) (and (and (and (and (and (and (and (and (= x_183 3) ?v_34) x_153) x_154) x_178) ?v_50) ?v_15) ?v_13) ?v_51)) (and (and (and (and (and (and (and (= x_183 4) ?v_41) (or (or ?v_47 x_154) ?v_52)) (or (or ?v_47 ?v_45) ?v_52)) (= x_180 ?v_53)) (= x_178 x_160)) (= x_179 x_161)) ?v_54)) (and (and (and (and (and (and (= x_183 5) ?v_34) ?v_36) x_169) ?v_51) ?v_48) ?v_54))) (or (or (or (or (or (and (and (and (and (and (and (and (and (and (= x_184 0) ?v_34) ?v_57) ?v_55) ?v_46) ?v_50) x_173) ?v_25) ?v_58) ?v_56) (and (and (and (and (and (and (and (= x_184 1) ?v_34) x_155) ?v_55) ?v_27) x_174) ?v_56) ?v_59)) (and (and (and (and (and (and (and (and (and (= x_184 2) ?v_34) ?v_57) x_156) x_178) ?v_50) x_173) x_174) ?v_58) ?v_56)) (and (and (and (and (and (and (and (and (= x_184 3) ?v_34) x_155) x_156) (not (< x_152 1))) ?v_27) ?v_25) ?v_56) ?v_59)) (and (and (and (and (and (and (= x_184 4) ?v_41) (or (or ?v_57 x_156) (<= ?v_60 1))) (or (or ?v_57 ?v_55) (<= ?v_60 2))) (= x_170 ?v_60)) ?v_61) ?v_56)) (and (and (and (and (and (and (= x_184 5) ?v_34) ?v_46) x_179) ?v_59) ?v_61) ?v_56))) (= x_163 (ite ?v_69 0 1))) (or (or (or (or (or (and (and (and (and (and (and (and (and (= x_164 0) ?v_62) ?v_65) ?v_63) ?v_64) ?v_68) x_157) ?v_35) (= x_159 0)) (and (and (and (and (and (and (and (and (= x_164 1) ?v_62) x_139) ?v_63) (not (<= x_141 2))) ?v_66) ?v_37) x_158) ?v_67)) (and (and (and (and (and (and (and (= x_164 2) ?v_62) ?v_65) x_140) ?v_66) x_157) x_158) ?v_67)) (and (and (and (and (and (and (and (and (= x_164 3) ?v_62) x_139) x_140) x_150) ?v_68) ?v_37) ?v_35) ?v_67)) (and (and (and (and (and (and (and (and (= x_164 4) ?v_69) (or (or ?v_65 x_140) ?v_70)) (or (or x_139 ?v_63) ?v_70)) (or (or ?v_65 ?v_63) ?v_70)) (= x_159 ?v_71)) (= x_150 x_132)) (= x_151 x_133)) ?v_72)) (and (and (and (and (= x_164 5) ?v_62) ?v_67) ?v_66) ?v_72))) (or (or (or (or (or (and (and (and (and (and (and (and (and (and (= x_165 0) ?v_62) ?v_75) ?v_73) ?v_64) ?v_68) ?v_76) x_153) ?v_45) ?v_77) (and (and (and (and (and (and (and (and (and (= x_165 1) ?v_62) x_135) ?v_73) (= x_144 1)) ?v_74) ?v_78) ?v_47) x_154) ?v_79)) (and (and (and (and (and (and (and (and (and (= x_165 2) ?v_62) ?v_75) x_136) x_150) ?v_68) ?v_76) x_153) x_154) ?v_77)) (and (and (and (and (and (and (and (and (= x_165 3) ?v_62) x_135) x_136) x_160) ?v_78) ?v_47) ?v_45) ?v_79)) (and (and (and (and (and (and (and (= x_165 4) ?v_69) (or (or ?v_75 x_136) ?v_80)) (or (or ?v_75 ?v_73) ?v_80)) (= x_162 ?v_81)) (= x_160 x_142)) (= x_161 x_143)) ?v_82)) (and (and (and (and (and (and (= x_165 5) ?v_62) ?v_64) x_151) ?v_79) ?v_76) ?v_82))) (or (or (or (or (or (and (and (and (and (and (and (and (and (and (= x_166 0) ?v_62) ?v_85) ?v_83) ?v_74) ?v_78) x_155) ?v_55) ?v_86) ?v_84) (and (and (and (and (and (and (and (= x_166 1) ?v_62) x_137) ?v_83) ?v_57) x_156) ?v_84) ?v_87)) (and (and (and (and (and (and (and (and (and (= x_166 2) ?v_62) ?v_85) x_138) x_160) ?v_78) x_155) x_156) ?v_86) ?v_84)) (and (and (and (and (and (and (and (and (= x_166 3) ?v_62) x_137) x_138) (not (< x_134 1))) ?v_57) ?v_55) ?v_84) ?v_87)) (and (and (and (and (and (and (= x_166 4) ?v_69) (or (or ?v_85 x_138) (<= ?v_88 1))) (or (or ?v_85 ?v_83) (<= ?v_88 2))) (= x_152 ?v_88)) ?v_89) ?v_84)) (and (and (and (and (and (and (= x_166 5) ?v_62) ?v_74) x_161) ?v_87) ?v_89) ?v_84))) (= x_145 (ite ?v_97 0 1))) (or (or (or (or (or (and (and (and (and (and (and (and (and (= x_146 0) ?v_90) ?v_93) ?v_91) ?v_92) ?v_96) x_139) ?v_63) (= x_141 0)) (and (and (and (and (and (and (and (and (= x_146 1) ?v_90) x_121) ?v_91) (not (<= x_123 2))) ?v_94) ?v_65) x_140) ?v_95)) (and (and (and (and (and (and (and (= x_146 2) ?v_90) ?v_93) x_122) ?v_94) x_139) x_140) ?v_95)) (and (and (and (and (and (and (and (and (= x_146 3) ?v_90) x_121) x_122) x_132) ?v_96) ?v_65) ?v_63) ?v_95)) (and (and (and (and (and (and (and (and (= x_146 4) ?v_97) (or (or ?v_93 x_122) ?v_98)) (or (or x_121 ?v_91) ?v_98)) (or (or ?v_93 ?v_91) ?v_98)) (= x_141 ?v_99)) (= x_132 x_114)) (= x_133 x_115)) ?v_100)) (and (and (and (and (= x_146 5) ?v_90) ?v_95) ?v_94) ?v_100))) (or (or (or (or (or (and (and (and (and (and (and (and (and (and (= x_147 0) ?v_90) ?v_103) ?v_101) ?v_92) ?v_96) ?v_104) x_135) ?v_73) ?v_105) (and (and (and (and (and (and (and (and (and (= x_147 1) ?v_90) x_117) ?v_101) (= x_126 1)) ?v_102) ?v_106) ?v_75) x_136) ?v_107)) (and (and (and (and (and (and (and (and (and (= x_147 2) ?v_90) ?v_103) x_118) x_132) ?v_96) ?v_104) x_135) x_136) ?v_105)) (and (and (and (and (and (and (and (and (= x_147 3) ?v_90) x_117) x_118) x_142) ?v_106) ?v_75) ?v_73) ?v_107)) (and (and (and (and (and (and (and (= x_147 4) ?v_97) (or (or ?v_103 x_118) ?v_108)) (or (or ?v_103 ?v_101) ?v_108)) (= x_144 ?v_109)) (= x_142 x_124)) (= x_143 x_125)) ?v_110)) (and (and (and (and (and (and (= x_147 5) ?v_90) ?v_92) x_133) ?v_107) ?v_104) ?v_110))) (or (or (or (or (or (and (and (and (and (and (and (and (and (and (= x_148 0) ?v_90) ?v_113) ?v_111) ?v_102) ?v_106) x_137) ?v_83) ?v_114) ?v_112) (and (and (and (and (and (and (and (= x_148 1) ?v_90) x_119) ?v_111) ?v_85) x_138) ?v_112) ?v_115)) (and (and (and (and (and (and (and (and (and (= x_148 2) ?v_90) ?v_113) x_120) x_142) ?v_106) x_137) x_138) ?v_114) ?v_112)) (and (and (and (and (and (and (and (and (= x_148 3) ?v_90) x_119) x_120) (not (< x_116 1))) ?v_85) ?v_83) ?v_112) ?v_115)) (and (and (and (and (and (and (= x_148 4) ?v_97) (or (or ?v_113 x_120) (<= ?v_116 1))) (or (or ?v_113 ?v_111) (<= ?v_116 2))) (= x_134 ?v_116)) ?v_117) ?v_112)) (and (and (and (and (and (and (= x_148 5) ?v_90) ?v_102) x_143) ?v_115) ?v_117) ?v_112))) (= x_127 (ite ?v_125 0 1))) (or (or (or (or (or (and (and (and (and (and (and (and (and (= x_128 0) ?v_118) ?v_121) ?v_119) ?v_120) ?v_124) x_121) ?v_91) (= x_123 0)) (and (and (and (and (and (and (and (and (= x_128 1) ?v_118) x_103) ?v_119) (not (<= x_105 2))) ?v_122) ?v_93) x_122) ?v_123)) (and (and (and (and (and (and (and (= x_128 2) ?v_118) ?v_121) x_104) ?v_122) x_121) x_122) ?v_123)) (and (and (and (and (and (and (and (and (= x_128 3) ?v_118) x_103) x_104) x_114) ?v_124) ?v_93) ?v_91) ?v_123)) (and (and (and (and (and (and (and (and (= x_128 4) ?v_125) (or (or ?v_121 x_104) ?v_126)) (or (or x_103 ?v_119) ?v_126)) (or (or ?v_121 ?v_119) ?v_126)) (= x_123 ?v_127)) (= x_114 x_96)) (= x_115 x_97)) ?v_128)) (and (and (and (and (= x_128 5) ?v_118) ?v_123) ?v_122) ?v_128))) (or (or (or (or (or (and (and (and (and (and (and (and (and (and (= x_129 0) ?v_118) ?v_131) ?v_129) ?v_120) ?v_124) ?v_132) x_117) ?v_101) ?v_133) (and (and (and (and (and (and (and (and (and (= x_129 1) ?v_118) x_99) ?v_129) (= x_108 1)) ?v_130) ?v_134) ?v_103) x_118) ?v_135)) (and (and (and (and (and (and (and (and (and (= x_129 2) ?v_118) ?v_131) x_100) x_114) ?v_124) ?v_132) x_117) x_118) ?v_133)) (and (and (and (and (and (and (and (and (= x_129 3) ?v_118) x_99) x_100) x_124) ?v_134) ?v_103) ?v_101) ?v_135)) (and (and (and (and (and (and (and (= x_129 4) ?v_125) (or (or ?v_131 x_100) ?v_136)) (or (or ?v_131 ?v_129) ?v_136)) (= x_126 ?v_137)) (= x_124 x_106)) (= x_125 x_107)) ?v_138)) (and (and (and (and (and (and (= x_129 5) ?v_118) ?v_120) x_115) ?v_135) ?v_132) ?v_138))) (or (or (or (or (or (and (and (and (and (and (and (and (and (and (= x_130 0) ?v_118) ?v_141) ?v_139) ?v_130) ?v_134) x_119) ?v_111) ?v_142) ?v_140) (and (and (and (and (and (and (and (= x_130 1) ?v_118) x_101) ?v_139) ?v_113) x_120) ?v_140) ?v_143)) (and (and (and (and (and (and (and (and (and (= x_130 2) ?v_118) ?v_141) x_102) x_124) ?v_134) x_119) x_120) ?v_142) ?v_140)) (and (and (and (and (and (and (and (and (= x_130 3) ?v_118) x_101) x_102) (not (< x_98 1))) ?v_113) ?v_111) ?v_140) ?v_143)) (and (and (and (and (and (and (= x_130 4) ?v_125) (or (or ?v_141 x_102) (<= ?v_144 1))) (or (or ?v_141 ?v_139) (<= ?v_144 2))) (= x_116 ?v_144)) ?v_145) ?v_140)) (and (and (and (and (and (and (= x_130 5) ?v_118) ?v_130) x_125) ?v_143) ?v_145) ?v_140))) (= x_109 (ite ?v_153 0 1))) (or (or (or (or (or (and (and (and (and (and (and (and (and (= x_110 0) ?v_146) ?v_149) ?v_147) ?v_148) ?v_152) x_103) ?v_119) (= x_105 0)) (and (and (and (and (and (and (and (and (= x_110 1) ?v_146) x_85) ?v_147) (not (<= x_87 2))) ?v_150) ?v_121) x_104) ?v_151)) (and (and (and (and (and (and (and (= x_110 2) ?v_146) ?v_149) x_86) ?v_150) x_103) x_104) ?v_151)) (and (and (and (and (and (and (and (and (= x_110 3) ?v_146) x_85) x_86) x_96) ?v_152) ?v_121) ?v_119) ?v_151)) (and (and (and (and (and (and (and (and (= x_110 4) ?v_153) (or (or ?v_149 x_86) ?v_154)) (or (or x_85 ?v_147) ?v_154)) (or (or ?v_149 ?v_147) ?v_154)) (= x_105 ?v_155)) (= x_96 x_78)) (= x_97 x_79)) ?v_156)) (and (and (and (and (= x_110 5) ?v_146) ?v_151) ?v_150) ?v_156))) (or (or (or (or (or (and (and (and (and (and (and (and (and (and (= x_111 0) ?v_146) ?v_159) ?v_157) ?v_148) ?v_152) ?v_160) x_99) ?v_129) ?v_161) (and (and (and (and (and (and (and (and (and (= x_111 1) ?v_146) x_81) ?v_157) (= x_90 1)) ?v_158) ?v_162) ?v_131) x_100) ?v_163)) (and (and (and (and (and (and (and (and (and (= x_111 2) ?v_146) ?v_159) x_82) x_96) ?v_152) ?v_160) x_99) x_100) ?v_161)) (and (and (and (and (and (and (and (and (= x_111 3) ?v_146) x_81) x_82) x_106) ?v_162) ?v_131) ?v_129) ?v_163)) (and (and (and (and (and (and (and (= x_111 4) ?v_153) (or (or ?v_159 x_82) ?v_164)) (or (or ?v_159 ?v_157) ?v_164)) (= x_108 ?v_165)) (= x_106 x_88)) (= x_107 x_89)) ?v_166)) (and (and (and (and (and (and (= x_111 5) ?v_146) ?v_148) x_97) ?v_163) ?v_160) ?v_166))) (or (or (or (or (or (and (and (and (and (and (and (and (and (and (= x_112 0) ?v_146) ?v_169) ?v_167) ?v_158) ?v_162) x_101) ?v_139) ?v_170) ?v_168) (and (and (and (and (and (and (and (= x_112 1) ?v_146) x_83) ?v_167) ?v_141) x_102) ?v_168) ?v_171)) (and (and (and (and (and (and (and (and (and (= x_112 2) ?v_146) ?v_169) x_84) x_106) ?v_162) x_101) x_102) ?v_170) ?v_168)) (and (and (and (and (and (and (and (and (= x_112 3) ?v_146) x_83) x_84) (not (< x_80 1))) ?v_141) ?v_139) ?v_168) ?v_171)) (and (and (and (and (and (and (= x_112 4) ?v_153) (or (or ?v_169 x_84) (<= ?v_172 1))) (or (or ?v_169 ?v_167) (<= ?v_172 2))) (= x_98 ?v_172)) ?v_173) ?v_168)) (and (and (and (and (and (and (= x_112 5) ?v_146) ?v_158) x_107) ?v_171) ?v_173) ?v_168))) (= x_91 (ite ?v_181 0 1))) (or (or (or (or (or (and (and (and (and (and (and (and (and (= x_92 0) ?v_174) ?v_177) ?v_175) ?v_176) ?v_180) x_85) ?v_147) (= x_87 0)) (and (and (and (and (and (and (and (and (= x_92 1) ?v_174) x_67) ?v_175) (not (<= x_69 2))) ?v_178) ?v_149) x_86) ?v_179)) (and (and (and (and (and (and (and (= x_92 2) ?v_174) ?v_177) x_68) ?v_178) x_85) x_86) ?v_179)) (and (and (and (and (and (and (and (and (= x_92 3) ?v_174) x_67) x_68) x_78) ?v_180) ?v_149) ?v_147) ?v_179)) (and (and (and (and (and (and (and (and (= x_92 4) ?v_181) (or (or ?v_177 x_68) ?v_182)) (or (or x_67 ?v_175) ?v_182)) (or (or ?v_177 ?v_175) ?v_182)) (= x_87 ?v_183)) (= x_78 x_60)) (= x_79 x_61)) ?v_184)) (and (and (and (and (= x_92 5) ?v_174) ?v_179) ?v_178) ?v_184))) (or (or (or (or (or (and (and (and (and (and (and (and (and (and (= x_93 0) ?v_174) ?v_187) ?v_185) ?v_176) ?v_180) ?v_188) x_81) ?v_157) ?v_189) (and (and (and (and (and (and (and (and (and (= x_93 1) ?v_174) x_63) ?v_185) (= x_72 1)) ?v_186) ?v_190) ?v_159) x_82) ?v_191)) (and (and (and (and (and (and (and (and (and (= x_93 2) ?v_174) ?v_187) x_64) x_78) ?v_180) ?v_188) x_81) x_82) ?v_189)) (and (and (and (and (and (and (and (and (= x_93 3) ?v_174) x_63) x_64) x_88) ?v_190) ?v_159) ?v_157) ?v_191)) (and (and (and (and (and (and (and (= x_93 4) ?v_181) (or (or ?v_187 x_64) ?v_192)) (or (or ?v_187 ?v_185) ?v_192)) (= x_90 ?v_193)) (= x_88 x_70)) (= x_89 x_71)) ?v_194)) (and (and (and (and (and (and (= x_93 5) ?v_174) ?v_176) x_79) ?v_191) ?v_188) ?v_194))) (or (or (or (or (or (and (and (and (and (and (and (and (and (and (= x_94 0) ?v_174) ?v_197) ?v_195) ?v_186) ?v_190) x_83) ?v_167) ?v_198) ?v_196) (and (and (and (and (and (and (and (= x_94 1) ?v_174) x_65) ?v_195) ?v_169) x_84) ?v_196) ?v_199)) (and (and (and (and (and (and (and (and (and (= x_94 2) ?v_174) ?v_197) x_66) x_88) ?v_190) x_83) x_84) ?v_198) ?v_196)) (and (and (and (and (and (and (and (and (= x_94 3) ?v_174) x_65) x_66) (not (< x_62 1))) ?v_169) ?v_167) ?v_196) ?v_199)) (and (and (and (and (and (and (= x_94 4) ?v_181) (or (or ?v_197 x_66) (<= ?v_200 1))) (or (or ?v_197 ?v_195) (<= ?v_200 2))) (= x_80 ?v_200)) ?v_201) ?v_196)) (and (and (and (and (and (and (= x_94 5) ?v_174) ?v_186) x_89) ?v_199) ?v_201) ?v_196))) (= x_73 (ite ?v_209 0 1))) (or (or (or (or (or (and (and (and (and (and (and (and (and (= x_74 0) ?v_202) ?v_205) ?v_203) ?v_204) ?v_208) x_67) ?v_175) (= x_69 0)) (and (and (and (and (and (and (and (and (= x_74 1) ?v_202) x_49) ?v_203) (not (<= x_51 2))) ?v_206) ?v_177) x_68) ?v_207)) (and (and (and (and (and (and (and (= x_74 2) ?v_202) ?v_205) x_50) ?v_206) x_67) x_68) ?v_207)) (and (and (and (and (and (and (and (and (= x_74 3) ?v_202) x_49) x_50) x_60) ?v_208) ?v_177) ?v_175) ?v_207)) (and (and (and (and (and (and (and (and (= x_74 4) ?v_209) (or (or ?v_205 x_50) ?v_210)) (or (or x_49 ?v_203) ?v_210)) (or (or ?v_205 ?v_203) ?v_210)) (= x_69 ?v_211)) (= x_60 x_42)) (= x_61 x_43)) ?v_212)) (and (and (and (and (= x_74 5) ?v_202) ?v_207) ?v_206) ?v_212))) (or (or (or (or (or (and (and (and (and (and (and (and (and (and (= x_75 0) ?v_202) ?v_215) ?v_213) ?v_204) ?v_208) ?v_216) x_63) ?v_185) ?v_217) (and (and (and (and (and (and (and (and (and (= x_75 1) ?v_202) x_45) ?v_213) (= x_54 1)) ?v_214) ?v_218) ?v_187) x_64) ?v_219)) (and (and (and (and (and (and (and (and (and (= x_75 2) ?v_202) ?v_215) x_46) x_60) ?v_208) ?v_216) x_63) x_64) ?v_217)) (and (and (and (and (and (and (and (and (= x_75 3) ?v_202) x_45) x_46) x_70) ?v_218) ?v_187) ?v_185) ?v_219)) (and (and (and (and (and (and (and (= x_75 4) ?v_209) (or (or ?v_215 x_46) ?v_220)) (or (or ?v_215 ?v_213) ?v_220)) (= x_72 ?v_221)) (= x_70 x_52)) (= x_71 x_53)) ?v_222)) (and (and (and (and (and (and (= x_75 5) ?v_202) ?v_204) x_61) ?v_219) ?v_216) ?v_222))) (or (or (or (or (or (and (and (and (and (and (and (and (and (and (= x_76 0) ?v_202) ?v_225) ?v_223) ?v_214) ?v_218) x_65) ?v_195) ?v_226) ?v_224) (and (and (and (and (and (and (and (= x_76 1) ?v_202) x_47) ?v_223) ?v_197) x_66) ?v_224) ?v_227)) (and (and (and (and (and (and (and (and (and (= x_76 2) ?v_202) ?v_225) x_48) x_70) ?v_218) x_65) x_66) ?v_226) ?v_224)) (and (and (and (and (and (and (and (and (= x_76 3) ?v_202) x_47) x_48) (not (< x_44 1))) ?v_197) ?v_195) ?v_224) ?v_227)) (and (and (and (and (and (and (= x_76 4) ?v_209) (or (or ?v_225 x_48) (<= ?v_228 1))) (or (or ?v_225 ?v_223) (<= ?v_228 2))) (= x_62 ?v_228)) ?v_229) ?v_224)) (and (and (and (and (and (and (= x_76 5) ?v_202) ?v_214) x_71) ?v_227) ?v_229) ?v_224))) (= x_55 (ite ?v_237 0 1))) (or (or (or (or (or (and (and (and (and (and (and (and (and (= x_56 0) ?v_230) ?v_233) ?v_231) ?v_232) ?v_236) x_49) ?v_203) (= x_51 0)) (and (and (and (and (and (and (and (and (= x_56 1) ?v_230) x_27) ?v_231) (not (<= x_29 2))) ?v_234) ?v_205) x_50) ?v_235)) (and (and (and (and (and (and (and (= x_56 2) ?v_230) ?v_233) x_28) ?v_234) x_49) x_50) ?v_235)) (and (and (and (and (and (and (and (and (= x_56 3) ?v_230) x_27) x_28) x_42) ?v_236) ?v_205) ?v_203) ?v_235)) (and (and (and (and (and (and (and (and (= x_56 4) ?v_237) (or (or ?v_233 x_28) ?v_238)) (or (or x_27 ?v_231) ?v_238)) (or (or ?v_233 ?v_231) ?v_238)) (= x_51 ?v_239)) (= x_42 x_19)) (= x_43 x_20)) ?v_240)) (and (and (and (and (= x_56 5) ?v_230) ?v_235) ?v_234) ?v_240))) (or (or (or (or (or (and (and (and (and (and (and (and (and (and (= x_57 0) ?v_230) ?v_243) ?v_241) ?v_232) ?v_236) ?v_244) x_45) ?v_213) ?v_245) (and (and (and (and (and (and (and (and (and (= x_57 1) ?v_230) x_22) ?v_241) (= x_32 1)) ?v_242) ?v_246) ?v_215) x_46) ?v_247)) (and (and (and (and (and (and (and (and (and (= x_57 2) ?v_230) ?v_243) x_23) x_42) ?v_236) ?v_244) x_45) x_46) ?v_245)) (and (and (and (and (and (and (and (and (= x_57 3) ?v_230) x_22) x_23) x_52) ?v_246) ?v_215) ?v_213) ?v_247)) (and (and (and (and (and (and (and (= x_57 4) ?v_237) (or (or ?v_243 x_23) ?v_248)) (or (or ?v_243 ?v_241) ?v_248)) (= x_54 ?v_249)) (= x_52 x_30)) (= x_53 x_31)) ?v_250)) (and (and (and (and (and (and (= x_57 5) ?v_230) ?v_232) x_43) ?v_247) ?v_244) ?v_250))) (or (or (or (or (or (and (and (and (and (and (and (and (and (and (= x_58 0) ?v_230) ?v_253) ?v_251) ?v_242) ?v_246) x_47) ?v_223) ?v_254) ?v_252) (and (and (and (and (and (and (and (= x_58 1) ?v_230) x_25) ?v_251) ?v_225) x_48) ?v_252) ?v_255)) (and (and (and (and (and (and (and (and (and (= x_58 2) ?v_230) ?v_253) x_26) x_52) ?v_246) x_47) x_48) ?v_254) ?v_252)) (and (and (and (and (and (and (and (and (= x_58 3) ?v_230) x_25) x_26) (not (< x_21 1))) ?v_225) ?v_223) ?v_252) ?v_255)) (and (and (and (and (and (and (= x_58 4) ?v_237) (or (or ?v_253 x_26) (<= ?v_256 1))) (or (or ?v_253 ?v_251) (<= ?v_256 2))) (= x_44 ?v_256)) ?v_257) ?v_252)) (and (and (and (and (and (and (= x_58 5) ?v_230) ?v_242) x_53) ?v_255) ?v_257) ?v_252))) (= x_33 (ite x_24 0 1))) (or (or (or (or (or (and (and (and (and (and (and (and (and (= x_34 0) ?v_260) ?v_258) ?v_259) ?v_261) ?v_264) x_27) ?v_231) ?v_262) (and (and (and (and (and (and (and (and (= x_34 1) ?v_260) x_0) ?v_259) (not (<= 0 2))) ?v_263) ?v_233) x_28) ?v_262)) (and (and (and (and (and (and (and (= x_34 2) ?v_260) ?v_258) x_1) ?v_263) x_27) x_28) ?v_262)) (and (and (and (and (and (and (and (and (= x_34 3) ?v_260) x_0) x_1) x_19) ?v_264) ?v_233) ?v_231) ?v_262)) (and (and (and (and (and (and (and (and (= x_34 4) x_24) (or (or ?v_258 x_1) ?v_265)) (or (or x_0 ?v_259) ?v_265)) (or (or ?v_258 ?v_259) ?v_265)) (= x_29 ?v_266)) (= x_19 x_35)) (= x_20 x_36)) ?v_267)) (and (and (and (and (= x_34 5) ?v_260) ?v_262) ?v_263) ?v_267))) (or (or (or (or (or (and (and (and (and (and (and (and (and (and (= x_37 0) ?v_260) ?v_268) ?v_269) ?v_261) ?v_264) ?v_272) x_22) ?v_241) ?v_271) (and (and (and (and (and (and (and (and (and (= x_37 1) ?v_260) x_2) ?v_269) (= 0 1)) ?v_270) ?v_273) ?v_243) x_23) ?v_271)) (and (and (and (and (and (and (and (and (and (= x_37 2) ?v_260) ?v_268) x_3) x_19) ?v_264) ?v_272) x_22) x_23) ?v_271)) (and (and (and (and (and (and (and (and (= x_37 3) ?v_260) x_2) x_3) x_30) ?v_273) ?v_243) ?v_241) ?v_271)) (and (and (and (and (and (and (and (= x_37 4) x_24) (or (or ?v_268 x_3) ?v_274)) (or (or ?v_268 ?v_269) ?v_274)) (= x_32 ?v_266)) (= x_30 x_38)) (= x_31 x_39)) ?v_275)) (and (and (and (and (and (and (= x_37 5) ?v_260) ?v_261) x_20) ?v_271) ?v_272) ?v_275))) (or (or (or (or (or (and (and (and (and (and (and (and (and (and (= x_40 0) ?v_260) ?v_276) ?v_277) ?v_270) ?v_273) x_25) ?v_251) ?v_279) ?v_278) (and (and (and (and (and (and (and (= x_40 1) ?v_260) x_4) ?v_277) ?v_253) x_26) ?v_278) ?v_279)) (and (and (and (and (and (and (and (and (and (= x_40 2) ?v_260) ?v_276) x_5) x_30) ?v_273) x_25) x_26) ?v_279) ?v_278)) (and (and (and (and (and (and (and (and (= x_40 3) ?v_260) x_4) x_5) (not (< 0 1))) ?v_253) ?v_251) ?v_278) ?v_279)) (and (and (and (and (and (and (= x_40 4) x_24) (or (or ?v_276 x_5) ?v_274)) (or (or ?v_276 ?v_277) (<= ?v_266 2))) (= x_21 ?v_266)) ?v_280) ?v_278)) (and (and (and (and (and (and (= x_40 5) ?v_260) ?v_270) x_31) ?v_279) ?v_280) ?v_278))) (or (or (or (or (or (or (or (or (or (or (and (and ?v_7 x_194) (or x_191 ?v_30)) (and (and ?v_3 x_176) (or x_173 ?v_25))) (and (and ?v_37 x_158) (or x_155 ?v_55))) (and (and ?v_65 x_140) (or x_137 ?v_83))) (and (and ?v_93 x_122) (or x_119 ?v_111))) (and (and ?v_121 x_104) (or x_101 ?v_139))) (and (and ?v_149 x_86) (or x_83 ?v_167))) (and (and ?v_177 x_68) (or x_65 ?v_195))) (and (and ?v_205 x_50) (or x_47 ?v_223))) (and (and ?v_233 x_28) (or x_25 ?v_251))) (and (and ?v_258 x_1) (or x_4 ?v_277)))) (or ?v_264 ?v_261)) (or ?v_273 ?v_270)) (or (not x_36) (not x_35))) (or (not x_39) (not x_38))) (or ?v_236 ?v_232)) (or ?v_246 ?v_242)) (or ?v_208 ?v_204)) (or ?v_218 ?v_214)) (or ?v_180 ?v_176)) (or ?v_190 ?v_186)) (or ?v_152 ?v_148)) (or ?v_162 ?v_158)) (or ?v_124 ?v_120)) (or ?v_134 ?v_130)) (or ?v_96 ?v_92)) (or ?v_106 ?v_102)) (or ?v_68 ?v_64)) (or ?v_78 ?v_74)) (or ?v_40 ?v_36)) (or ?v_50 ?v_46)) (or ?v_6 ?v_2)) (or ?v_18 ?v_14))))))))))))))))))))))))
(check-sat)
(exit)
